(set-info :smt-lib-version 2.6)
(set-logic UFNIA)
(set-info :source |
Generated by: Geoff Sutcliffe
Generated on: 2026-03-11
Generator: TPTPWorld
Application: Benchmarking automated theorem provers
Time limit: 120.0

These benchmarks are translations from the TPTP Library (Thousands of
Problems for Theorem Provers), see http://www.cs.miami.edu/~tptp/

The TPTP is maintained by Geoff Sutcliffe, and he contributed this
selection of benchmarks to SMT-LIB.  They were exported from the
v9.2.1 realease of TPTP.
|)
(set-info :category "industrial")
(set-info :status unknown)
; SZS status Success
(declare-sort $$unsorted 0)
(declare-fun tptp.v0 (Int) Int)
(declare-fun |tptp.'div:(Int*Int)>Int'| (Int Int) Int)
(declare-fun tptp.u0 (Int Int) Int)
(declare-fun tptp.g0 (Int) Int)
(declare-fun tptp.f0 (Int Int) Int)
(declare-fun tptp.h0 () Int)
(declare-fun tptp.fast (Int) Int)
(declare-fun tptp.small (Int) Int)
(assert (forall ((X Int) (Y Int)) (= (tptp.f0 X Y) (+ (|tptp.'div:(Int*Int)>Int'| X (|tptp.'div:(Int*Int)>Int'| X Y)) X))))
(assert (forall ((X Int)) (= (tptp.g0 X) X)))
(assert (= tptp.h0 1))
(assert (forall ((X Int) (Y Int)) (let ((_let_1 (tptp.u0 X Y))) (let ((_let_2 (<= X 0))) (and (=> _let_2 (= _let_1 Y)) (=> (not _let_2) (= _let_1 (tptp.f0 (tptp.u0 (- X 1) Y) X))))))))
(assert (forall ((X Int)) (= (tptp.v0 X) (tptp.u0 (tptp.g0 X) tptp.h0))))
(assert (forall ((X Int)) (= (tptp.small X) (+ (+ (tptp.v0 X) X) X))))
(assert (forall ((X Int)) (let ((_let_1 (|tptp.'div:(Int*Int)>Int'| (+ 1 (* X X)) 2))) (let ((_let_2 (tptp.fast X))) (let ((_let_3 (<= X 0))) (and (=> _let_3 (= _let_2 (+ (+ (+ _let_1 1) X) X))) (=> (not _let_3) (= _let_2 (+ (+ (+ _let_1 X) X) X)))))))))
(assert (not (not (exists ((C Int)) (and (>= C 0) (not (= (tptp.small C) (tptp.fast C))))))))
(check-sat)
(exit)
